	Costo	Iter.	Tiempo
1	530,22	200	34,409
2	880,3	114	46,086
3	852,47	207	268,452
4	1090,73	97	302,296
5	1432,5	52	304,732
6	562,93	172	57,341
7	950,93	50	300,214
8	908,27	44	302,03
9	1250,37	3	334,655
10	1552,43	2	458,265
11	1240,66	169	300,235
12	842,46	264	160,125
13	1607,22	212	197,984
14	873,01	258	114,124
